(declare-const fee_bl Real)
(declare-const p4_50 Real)
(declare-const p2_50 Real)
(declare-const income Real)
(declare-const p3_00 Real)
(declare-const p4_00 Real)
(declare-const p3_50 Real)
(declare-const p4_70 Real)
(declare-const p2_00 Real)
(assert (= p2_00 (* 0.02 (ite (> income 2626) 2626 income))))
(assert (= p2_50 (ite (> income 2626) (* 0.025 (- (ite (> income 3939) 3939 income) 2626)) 0)))
(assert (= p3_00 (ite (> income 3939) (* 0.03 (- (ite (> income 5252) 5252 income) 3939)) 0)))
(assert (= p3_50 (ite (> income 5252) (* 0.035 (- (ite (> income 6565) 6565 income) 5252)) 0)))
(assert (= p4_00 (ite (> income 6565) (* 0.04 (- (ite (> income 7878) 7878 income) 6565)) 0)))
(assert (= p4_50 (ite (> income 7878) (* 0.045 (- (ite (> income 9191) 9191 income) 7878)) 0)))
(assert (= p4_70 (ite (> income 9191) (* 0.047 (- income 9191)) 0)))
(assert (= fee_bl (+ (+ (+ (+ (+ (+ p2_00 p2_50) p3_00) p3_50) p4_00) p4_50) p4_70)))